p edge 250 3137
e 0 5
e 0 8
e 0 9
e 0 11
e 0 17
e 0 29
e 0 34
e 0 41
e 0 53
e 0 81
e 0 90
e 0 97
e 0 100
e 0 111
e 0 133
e 0 158
e 0 168
e 0 171
e 0 178
e 0 185
e 0 195
e 0 204
e 0 205
e 0 215
e 0 216
e 0 217
e 0 219
e 0 227
e 0 234
e 0 237
e 0 239
e 0 242
e 1 15
e 1 24
e 1 25
e 1 26
e 1 33
e 1 53
e 1 54
e 1 66
e 1 74
e 1 83
e 1 120
e 1 145
e 1 147
e 1 163
e 1 178
e 1 182
e 1 190
e 1 204
e 1 210
e 1 220
e 1 222
e 1 232
e 1 236
e 2 3
e 2 15
e 2 38
e 2 41
e 2 57
e 2 62
e 2 63
e 2 73
e 2 79
e 2 88
e 2 106
e 2 115
e 2 121
e 2 124
e 2 128
e 2 140
e 2 158
e 2 177
e 2 192
e 2 194
e 2 208
e 2 218
e 2 230
e 2 235
e 2 236
e 2 241
e 3 12
e 3 22
e 3 31
e 3 49
e 3 54
e 3 57
e 3 79
e 3 97
e 3 98
e 3 119
e 3 126
e 3 135
e 3 138
e 3 150
e 3 166
e 3 171
e 3 175
e 3 182
e 3 210
e 3 249
e 4 20
e 4 35
e 4 41
e 4 43
e 4 45
e 4 59
e 4 70
e 4 77
e 4 103
e 4 119
e 4 136
e 4 139
e 4 170
e 4 175
e 4 179
e 4 182
e 4 189
e 4 191
e 4 205
e 4 218
e 4 220
e 4 224
e 4 234
e 4 240
e 4 249
e 5 15
e 5 27
e 5 42
e 5 64
e 5 68
e 5 104
e 5 108
e 5 110
e 5 120
e 5 122
e 5 148
e 5 172
e 5 174
e 5 177
e 5 184
e 5 185
e 5 200
e 5 201
e 5 202
e 5 210
e 5 224
e 5 225
e 5 233
e 5 244
e 5 245
e 5 248
e 6 11
e 6 15
e 6 25
e 6 37
e 6 70
e 6 72
e 6 85
e 6 120
e 6 129
e 6 141
e 6 150
e 6 163
e 6 187
e 6 199
e 6 205
e 6 211
e 6 223
e 6 227
e 6 231
e 6 236
e 6 248
e 7 52
e 7 54
e 7 61
e 7 77
e 7 80
e 7 84
e 7 106
e 7 111
e 7 118
e 7 128
e 7 141
e 7 145
e 7 197
e 7 204
e 7 217
e 7 218
e 7 220
e 7 232
e 7 242
e 7 249
e 8 10
e 8 11
e 8 24
e 8 25
e 8 67
e 8 73
e 8 76
e 8 78
e 8 83
e 8 89
e 8 90
e 8 96
e 8 112
e 8 115
e 8 129
e 8 131
e 8 144
e 8 157
e 8 161
e 8 163
e 8 172
e 8 184
e 8 188
e 8 196
e 8 198
e 8 216
e 8 228
e 9 47
e 9 50
e 9 55
e 9 73
e 9 90
e 9 94
e 9 97
e 9 118
e 9 123
e 9 138
e 9 147
e 9 151
e 9 173
e 9 174
e 9 189
e 9 190
e 9 225
e 9 230
e 10 17
e 10 21
e 10 36
e 10 40
e 10 47
e 10 57
e 10 62
e 10 77
e 10 93
e 10 132
e 10 136
e 10 141
e 10 156
e 10 164
e 10 166
e 10 169
e 10 193
e 10 199
e 10 202
e 10 226
e 10 249
e 11 16
e 11 47
e 11 52
e 11 82
e 11 86
e 11 115
e 11 126
e 11 131
e 11 136
e 11 141
e 11 149
e 11 150
e 11 163
e 11 164
e 11 166
e 11 180
e 11 197
e 11 211
e 11 222
e 11 224
e 11 248
e 12 14
e 12 70
e 12 73
e 12 79
e 12 89
e 12 93
e 12 101
e 12 105
e 12 110
e 12 132
e 12 136
e 12 140
e 12 157
e 12 162
e 12 169
e 12 172
e 12 174
e 12 178
e 12 180
e 12 190
e 12 199
e 12 209
e 12 216
e 12 221
e 13 15
e 13 32
e 13 58
e 13 66
e 13 70
e 13 72
e 13 95
e 13 123
e 13 125
e 13 150
e 13 158
e 13 163
e 13 184
e 13 185
e 13 194
e 13 196
e 13 203
e 13 206
e 13 226
e 13 236
e 13 245
e 14 15
e 14 19
e 14 33
e 14 127
e 14 129
e 14 130
e 14 139
e 14 151
e 14 169
e 14 194
e 14 201
e 14 211
e 14 214
e 14 218
e 14 226
e 14 233
e 14 238
e 14 240
e 14 247
e 14 249
e 15 29
e 15 30
e 15 60
e 15 91
e 15 118
e 15 122
e 15 136
e 15 149
e 15 154
e 15 170
e 15 179
e 15 211
e 15 217
e 15 221
e 15 226
e 15 239
e 15 246
e 16 21
e 16 23
e 16 26
e 16 27
e 16 35
e 16 59
e 16 70
e 16 71
e 16 72
e 16 81
e 16 94
e 16 98
e 16 101
e 16 118
e 16 123
e 16 141
e 16 145
e 16 149
e 16 151
e 16 153
e 16 160
e 16 162
e 16 171
e 16 176
e 16 177
e 16 179
e 16 180
e 16 181
e 16 183
e 16 187
e 16 196
e 16 203
e 16 207
e 16 209
e 16 222
e 16 223
e 17 40
e 17 76
e 17 83
e 17 106
e 17 119
e 17 147
e 17 157
e 17 162
e 17 173
e 17 183
e 17 185
e 17 189
e 17 200
e 17 203
e 17 205
e 17 213
e 17 233
e 17 240
e 18 24
e 18 25
e 18 30
e 18 49
e 18 50
e 18 63
e 18 65
e 18 70
e 18 106
e 18 107
e 18 119
e 18 122
e 18 123
e 18 128
e 18 137
e 18 141
e 18 172
e 18 176
e 18 206
e 18 210
e 18 227
e 18 236
e 18 244
e 18 247
e 18 249
e 19 20
e 19 31
e 19 39
e 19 40
e 19 46
e 19 49
e 19 57
e 19 76
e 19 77
e 19 82
e 19 85
e 19 102
e 19 113
e 19 123
e 19 141
e 19 145
e 19 146
e 19 152
e 19 153
e 19 156
e 19 157
e 19 169
e 19 170
e 19 174
e 19 180
e 19 185
e 19 187
e 19 203
e 19 206
e 19 216
e 19 232
e 19 241
e 20 31
e 20 35
e 20 46
e 20 51
e 20 71
e 20 125
e 20 131
e 20 148
e 20 175
e 20 176
e 20 222
e 20 234
e 20 239
e 21 28
e 21 32
e 21 47
e 21 71
e 21 88
e 21 92
e 21 98
e 21 116
e 21 118
e 21 151
e 21 155
e 21 163
e 21 166
e 21 175
e 21 195
e 21 209
e 21 211
e 21 235
e 21 239
e 21 240
e 21 244
e 21 245
e 22 34
e 22 36
e 22 44
e 22 49
e 22 55
e 22 59
e 22 68
e 22 85
e 22 103
e 22 117
e 22 118
e 22 127
e 22 128
e 22 138
e 22 145
e 22 148
e 22 155
e 22 186
e 22 198
e 22 204
e 22 205
e 22 223
e 22 233
e 22 239
e 22 247
e 23 37
e 23 46
e 23 58
e 23 62
e 23 74
e 23 76
e 23 83
e 23 87
e 23 88
e 23 98
e 23 105
e 23 148
e 23 152
e 23 154
e 23 171
e 23 180
e 23 190
e 23 199
e 23 201
e 23 208
e 23 218
e 23 222
e 23 231
e 23 244
e 24 78
e 24 98
e 24 109
e 24 120
e 24 123
e 24 125
e 24 128
e 24 135
e 24 136
e 24 145
e 24 160
e 24 167
e 24 187
e 24 195
e 24 200
e 24 202
e 24 222
e 24 238
e 24 239
e 25 44
e 25 60
e 25 61
e 25 73
e 25 78
e 25 81
e 25 93
e 25 97
e 25 105
e 25 118
e 25 128
e 25 131
e 25 135
e 25 138
e 25 151
e 25 161
e 25 171
e 25 193
e 25 198
e 25 221
e 25 233
e 25 243
e 25 246
e 25 249
e 26 28
e 26 35
e 26 39
e 26 43
e 26 60
e 26 73
e 26 89
e 26 95
e 26 96
e 26 103
e 26 105
e 26 133
e 26 139
e 26 151
e 26 158
e 26 171
e 26 186
e 26 200
e 26 208
e 26 228
e 26 231
e 26 237
e 27 49
e 27 62
e 27 84
e 27 90
e 27 133
e 27 167
e 27 179
e 27 182
e 27 199
e 27 217
e 27 229
e 27 230
e 27 234
e 27 240
e 27 247
e 28 47
e 28 49
e 28 54
e 28 66
e 28 68
e 28 79
e 28 81
e 28 86
e 28 91
e 28 97
e 28 98
e 28 121
e 28 129
e 28 138
e 28 151
e 28 157
e 28 158
e 28 159
e 28 169
e 28 172
e 28 178
e 28 194
e 28 210
e 28 213
e 28 217
e 28 232
e 28 248
e 29 31
e 29 41
e 29 43
e 29 48
e 29 57
e 29 59
e 29 61
e 29 63
e 29 78
e 29 92
e 29 105
e 29 121
e 29 127
e 29 135
e 29 142
e 29 146
e 29 150
e 29 152
e 29 164
e 29 165
e 29 167
e 29 173
e 29 180
e 29 208
e 29 210
e 29 215
e 29 230
e 29 234
e 29 241
e 30 36
e 30 39
e 30 58
e 30 81
e 30 100
e 30 110
e 30 111
e 30 123
e 30 140
e 30 173
e 30 176
e 30 178
e 30 179
e 30 183
e 30 186
e 30 204
e 30 212
e 30 249
e 31 35
e 31 38
e 31 42
e 31 46
e 31 66
e 31 70
e 31 74
e 31 96
e 31 103
e 31 110
e 31 115
e 31 120
e 31 121
e 31 125
e 31 143
e 31 164
e 31 176
e 31 178
e 31 180
e 31 182
e 31 188
e 31 189
e 31 191
e 31 220
e 31 225
e 31 234
e 31 235
e 31 240
e 32 37
e 32 43
e 32 49
e 32 50
e 32 58
e 32 60
e 32 96
e 32 115
e 32 118
e 32 119
e 32 133
e 32 157
e 32 173
e 32 176
e 32 180
e 32 190
e 32 199
e 32 201
e 32 221
e 32 233
e 32 238
e 32 240
e 32 241
e 33 55
e 33 59
e 33 66
e 33 71
e 33 75
e 33 84
e 33 86
e 33 93
e 33 101
e 33 110
e 33 115
e 33 118
e 33 130
e 33 148
e 33 154
e 33 157
e 33 164
e 33 166
e 33 178
e 33 185
e 33 216
e 33 230
e 33 234
e 33 240
e 34 36
e 34 41
e 34 47
e 34 54
e 34 77
e 34 106
e 34 112
e 34 117
e 34 127
e 34 154
e 34 163
e 34 181
e 34 188
e 34 194
e 34 199
e 34 221
e 34 223
e 34 224
e 34 238
e 34 239
e 34 244
e 35 37
e 35 59
e 35 63
e 35 67
e 35 87
e 35 98
e 35 100
e 35 102
e 35 119
e 35 135
e 35 138
e 35 140
e 35 150
e 35 177
e 35 179
e 35 181
e 35 191
e 35 194
e 35 201
e 35 204
e 35 226
e 35 233
e 35 234
e 35 235
e 36 39
e 36 40
e 36 46
e 36 48
e 36 67
e 36 89
e 36 106
e 36 108
e 36 114
e 36 117
e 36 121
e 36 137
e 36 142
e 36 143
e 36 151
e 36 153
e 36 157
e 36 158
e 36 187
e 36 191
e 36 204
e 36 213
e 36 228
e 37 52
e 37 74
e 37 75
e 37 94
e 37 102
e 37 136
e 37 137
e 37 154
e 37 163
e 37 166
e 37 184
e 37 193
e 37 203
e 37 208
e 37 224
e 37 229
e 38 41
e 38 43
e 38 46
e 38 47
e 38 54
e 38 57
e 38 64
e 38 65
e 38 100
e 38 111
e 38 150
e 38 159
e 38 165
e 38 169
e 38 208
e 38 210
e 38 215
e 38 228
e 38 249
e 39 61
e 39 65
e 39 83
e 39 87
e 39 113
e 39 149
e 39 166
e 39 181
e 39 191
e 39 194
e 39 198
e 39 203
e 39 206
e 39 207
e 39 217
e 39 248
e 40 48
e 40 51
e 40 55
e 40 70
e 40 72
e 40 85
e 40 92
e 40 110
e 40 125
e 40 142
e 40 147
e 40 154
e 40 160
e 40 172
e 40 186
e 40 188
e 40 199
e 40 207
e 40 212
e 40 221
e 40 222
e 40 236
e 40 237
e 40 238
e 40 246
e 41 60
e 41 68
e 41 70
e 41 75
e 41 93
e 41 99
e 41 128
e 41 142
e 41 146
e 41 153
e 41 161
e 41 177
e 41 195
e 41 197
e 41 202
e 41 207
e 41 215
e 41 237
e 42 47
e 42 57
e 42 71
e 42 76
e 42 80
e 42 82
e 42 87
e 42 91
e 42 92
e 42 105
e 42 106
e 42 123
e 42 135
e 42 161
e 42 168
e 42 184
e 42 192
e 42 195
e 42 207
e 42 223
e 42 225
e 42 248
e 42 249
e 43 57
e 43 60
e 43 61
e 43 79
e 43 86
e 43 103
e 43 104
e 43 113
e 43 117
e 43 121
e 43 125
e 43 129
e 43 140
e 43 145
e 43 147
e 43 156
e 43 163
e 43 167
e 43 172
e 43 174
e 43 176
e 43 177
e 43 183
e 43 189
e 43 190
e 43 203
e 43 204
e 43 231
e 43 233
e 43 242
e 44 47
e 44 53
e 44 60
e 44 79
e 44 80
e 44 91
e 44 96
e 44 106
e 44 130
e 44 138
e 44 149
e 44 152
e 44 180
e 44 200
e 44 221
e 44 231
e 44 236
e 44 244
e 44 246
e 45 52
e 45 60
e 45 61
e 45 67
e 45 72
e 45 73
e 45 83
e 45 105
e 45 108
e 45 116
e 45 120
e 45 121
e 45 124
e 45 128
e 45 141
e 45 143
e 45 154
e 45 185
e 45 221
e 45 236
e 46 68
e 46 70
e 46 77
e 46 83
e 46 93
e 46 131
e 46 150
e 46 153
e 46 163
e 46 174
e 46 229
e 46 231
e 46 232
e 46 242
e 47 51
e 47 52
e 47 70
e 47 77
e 47 81
e 47 99
e 47 100
e 47 114
e 47 129
e 47 151
e 47 155
e 47 162
e 47 181
e 47 188
e 47 197
e 47 198
e 47 200
e 47 221
e 47 222
e 47 225
e 47 226
e 47 232
e 47 234
e 47 240
e 47 245
e 48 53
e 48 65
e 48 94
e 48 104
e 48 108
e 48 141
e 48 167
e 48 174
e 48 200
e 48 202
e 48 204
e 48 208
e 48 227
e 48 231
e 48 249
e 49 63
e 49 86
e 49 90
e 49 97
e 49 101
e 49 102
e 49 111
e 49 130
e 49 151
e 49 174
e 49 201
e 49 214
e 50 51
e 50 60
e 50 64
e 50 66
e 50 71
e 50 72
e 50 81
e 50 93
e 50 101
e 50 136
e 50 137
e 50 139
e 50 146
e 50 159
e 50 162
e 50 168
e 50 181
e 50 189
e 50 213
e 50 217
e 50 221
e 50 223
e 50 241
e 50 247
e 51 57
e 51 64
e 51 67
e 51 68
e 51 69
e 51 70
e 51 75
e 51 88
e 51 94
e 51 99
e 51 101
e 51 123
e 51 135
e 51 146
e 51 148
e 51 155
e 51 157
e 51 172
e 51 175
e 51 187
e 51 199
e 51 210
e 51 213
e 51 222
e 51 232
e 51 234
e 51 240
e 52 55
e 52 58
e 52 59
e 52 64
e 52 69
e 52 82
e 52 98
e 52 108
e 52 109
e 52 115
e 52 138
e 52 142
e 52 153
e 52 166
e 52 169
e 52 177
e 52 204
e 52 210
e 52 216
e 52 226
e 52 232
e 52 246
e 52 247
e 53 55
e 53 60
e 53 61
e 53 63
e 53 75
e 53 76
e 53 84
e 53 90
e 53 91
e 53 94
e 53 147
e 53 162
e 53 163
e 53 164
e 53 188
e 53 189
e 53 202
e 53 220
e 53 241
e 53 246
e 54 56
e 54 57
e 54 60
e 54 68
e 54 75
e 54 83
e 54 88
e 54 97
e 54 98
e 54 103
e 54 111
e 54 119
e 54 124
e 54 161
e 54 165
e 54 166
e 54 175
e 54 177
e 54 183
e 54 200
e 54 205
e 54 206
e 54 216
e 54 220
e 54 225
e 54 233
e 54 242
e 54 244
e 55 56
e 55 65
e 55 72
e 55 77
e 55 78
e 55 84
e 55 91
e 55 101
e 55 103
e 55 129
e 55 130
e 55 141
e 55 146
e 55 163
e 55 169
e 55 174
e 55 176
e 55 194
e 55 196
e 55 204
e 55 205
e 55 209
e 55 214
e 55 235
e 55 242
e 56 73
e 56 79
e 56 82
e 56 105
e 56 109
e 56 114
e 56 120
e 56 163
e 56 165
e 56 175
e 56 178
e 56 193
e 56 200
e 56 211
e 56 218
e 56 219
e 56 223
e 56 226
e 56 239
e 57 77
e 57 85
e 57 95
e 57 98
e 57 131
e 57 141
e 57 147
e 57 152
e 57 164
e 57 176
e 57 181
e 57 183
e 57 189
e 57 195
e 57 220
e 57 224
e 57 229
e 57 245
e 58 66
e 58 67
e 58 81
e 58 87
e 58 91
e 58 96
e 58 101
e 58 115
e 58 128
e 58 131
e 58 135
e 58 143
e 58 164
e 58 172
e 58 189
e 58 196
e 58 208
e 58 211
e 58 225
e 58 228
e 58 234
e 58 242
e 58 246
e 59 61
e 59 68
e 59 105
e 59 114
e 59 116
e 59 120
e 59 128
e 59 134
e 59 143
e 59 144
e 59 163
e 59 170
e 59 179
e 59 180
e 59 184
e 59 188
e 59 208
e 59 219
e 59 224
e 59 245
e 60 64
e 60 69
e 60 77
e 60 89
e 60 97
e 60 102
e 60 107
e 60 115
e 60 130
e 60 131
e 60 144
e 60 154
e 60 158
e 60 160
e 60 174
e 60 180
e 60 204
e 60 221
e 60 226
e 60 229
e 60 237
e 61 68
e 61 83
e 61 87
e 61 103
e 61 115
e 61 117
e 61 124
e 61 131
e 61 137
e 61 139
e 61 144
e 61 150
e 61 163
e 61 181
e 61 189
e 61 202
e 61 205
e 61 211
e 61 216
e 61 219
e 61 244
e 62 74
e 62 75
e 62 87
e 62 95
e 62 115
e 62 118
e 62 121
e 62 127
e 62 143
e 62 145
e 62 148
e 62 157
e 62 161
e 62 190
e 62 192
e 62 201
e 62 207
e 62 239
e 62 249
e 63 65
e 63 73
e 63 80
e 63 91
e 63 96
e 63 100
e 63 101
e 63 119
e 63 128
e 63 137
e 63 144
e 63 164
e 63 170
e 63 172
e 63 177
e 63 182
e 63 187
e 63 188
e 63 193
e 63 196
e 63 197
e 63 199
e 63 227
e 63 228
e 63 238
e 63 246
e 64 65
e 64 75
e 64 79
e 64 80
e 64 120
e 64 121
e 64 136
e 64 141
e 64 144
e 64 151
e 64 157
e 64 197
e 64 200
e 64 215
e 64 221
e 64 239
e 65 69
e 65 75
e 65 81
e 65 82
e 65 84
e 65 147
e 65 159
e 65 164
e 65 171
e 65 177
e 65 194
e 65 199
e 65 201
e 65 202
e 65 212
e 65 214
e 65 221
e 65 224
e 66 68
e 66 73
e 66 74
e 66 80
e 66 90
e 66 121
e 66 131
e 66 150
e 66 177
e 66 182
e 66 194
e 66 195
e 66 198
e 66 214
e 66 236
e 66 241
e 66 249
e 67 71
e 67 73
e 67 76
e 67 91
e 67 94
e 67 95
e 67 97
e 67 116
e 67 126
e 67 130
e 67 151
e 67 156
e 67 166
e 67 187
e 67 192
e 67 213
e 67 223
e 67 227
e 67 233
e 67 243
e 67 244
e 67 245
e 67 246
e 68 70
e 68 106
e 68 116
e 68 119
e 68 136
e 68 166
e 68 168
e 68 174
e 68 183
e 68 196
e 68 203
e 68 209
e 68 228
e 68 229
e 68 230
e 68 236
e 69 73
e 69 84
e 69 90
e 69 93
e 69 103
e 69 114
e 69 124
e 69 127
e 69 128
e 69 153
e 69 160
e 69 169
e 69 173
e 69 214
e 69 223
e 69 227
e 69 235
e 69 236
e 69 237
e 70 76
e 70 80
e 70 99
e 70 100
e 70 104
e 70 123
e 70 126
e 70 134
e 70 150
e 70 176
e 70 184
e 70 188
e 70 210
e 70 214
e 70 215
e 70 229
e 70 231
e 70 232
e 70 239
e 71 76
e 71 82
e 71 88
e 71 92
e 71 93
e 71 107
e 71 109
e 71 111
e 71 136
e 71 144
e 71 152
e 71 168
e 71 226
e 71 229
e 71 237
e 71 241
e 72 80
e 72 88
e 72 102
e 72 117
e 72 125
e 72 126
e 72 132
e 72 139
e 72 150
e 72 151
e 72 152
e 72 158
e 72 160
e 72 172
e 72 174
e 72 212
e 72 220
e 72 222
e 72 235
e 73 84
e 73 110
e 73 111
e 73 135
e 73 150
e 73 161
e 73 169
e 73 173
e 73 175
e 73 177
e 73 195
e 73 199
e 73 206
e 73 213
e 73 217
e 73 221
e 73 230
e 73 231
e 73 234
e 73 236
e 73 239
e 73 247
e 74 75
e 74 77
e 74 91
e 74 115
e 74 124
e 74 125
e 74 134
e 74 152
e 74 161
e 74 186
e 74 206
e 74 211
e 74 216
e 74 219
e 74 238
e 74 244
e 74 248
e 75 78
e 75 89
e 75 95
e 75 96
e 75 99
e 75 103
e 75 108
e 75 126
e 75 129
e 75 133
e 75 143
e 75 156
e 75 162
e 75 168
e 75 189
e 75 191
e 75 200
e 75 204
e 75 224
e 75 229
e 75 231
e 75 233
e 76 79
e 76 86
e 76 94
e 76 118
e 76 129
e 76 144
e 76 146
e 76 156
e 76 177
e 76 198
e 76 206
e 76 213
e 76 222
e 76 225
e 76 228
e 76 230
e 76 233
e 76 239
e 76 242
e 77 80
e 77 94
e 77 101
e 77 129
e 77 151
e 77 153
e 77 157
e 77 168
e 77 194
e 77 217
e 77 231
e 77 247
e 78 110
e 78 116
e 78 122
e 78 131
e 78 138
e 78 139
e 78 149
e 78 150
e 78 154
e 78 161
e 78 167
e 78 173
e 78 175
e 78 176
e 78 180
e 78 187
e 78 203
e 78 212
e 78 214
e 78 217
e 78 230
e 79 88
e 79 104
e 79 120
e 79 122
e 79 123
e 79 136
e 79 151
e 79 154
e 79 158
e 79 168
e 79 169
e 79 192
e 79 210
e 79 218
e 79 234
e 79 243
e 80 83
e 80 88
e 80 112
e 80 120
e 80 129
e 80 151
e 80 159
e 80 160
e 80 186
e 80 212
e 80 230
e 80 232
e 80 236
e 80 242
e 81 90
e 81 112
e 81 125
e 81 126
e 81 127
e 81 129
e 81 139
e 81 142
e 81 149
e 81 155
e 81 162
e 81 166
e 81 176
e 81 177
e 81 182
e 81 191
e 81 192
e 81 212
e 81 224
e 81 241
e 81 243
e 82 96
e 82 100
e 82 101
e 82 124
e 82 135
e 82 142
e 82 152
e 82 153
e 82 162
e 82 187
e 82 196
e 82 198
e 82 202
e 82 207
e 82 210
e 82 215
e 82 219
e 82 225
e 82 230
e 82 231
e 82 242
e 83 108
e 83 118
e 83 124
e 83 135
e 83 148
e 83 164
e 83 172
e 83 190
e 83 191
e 83 193
e 83 198
e 83 201
e 83 203
e 83 233
e 83 235
e 84 89
e 84 103
e 84 106
e 84 129
e 84 151
e 84 160
e 84 167
e 84 188
e 84 249
e 85 92
e 85 98
e 85 126
e 85 132
e 85 152
e 85 172
e 85 188
e 85 189
e 85 191
e 85 196
e 85 225
e 85 229
e 85 235
e 85 246
e 86 88
e 86 99
e 86 100
e 86 133
e 86 134
e 86 145
e 86 146
e 86 168
e 86 172
e 86 175
e 86 191
e 86 201
e 86 204
e 86 207
e 86 232
e 87 88
e 87 90
e 87 96
e 87 97
e 87 116
e 87 129
e 87 212
e 87 245
e 88 105
e 88 116
e 88 118
e 88 123
e 88 124
e 88 125
e 88 134
e 88 136
e 88 137
e 88 140
e 88 146
e 88 165
e 88 178
e 88 213
e 88 221
e 88 236
e 88 238
e 89 91
e 89 94
e 89 98
e 89 122
e 89 125
e 89 182
e 89 205
e 89 208
e 89 214
e 89 220
e 89 224
e 89 249
e 90 96
e 90 97
e 90 122
e 90 128
e 90 145
e 90 158
e 90 160
e 90 166
e 90 169
e 90 175
e 90 183
e 90 196
e 90 201
e 90 204
e 90 235
e 91 96
e 91 104
e 91 115
e 91 143
e 91 152
e 91 173
e 91 179
e 91 180
e 91 188
e 91 223
e 91 239
e 91 244
e 91 246
e 92 135
e 92 137
e 92 141
e 92 144
e 92 145
e 92 148
e 92 149
e 92 180
e 92 188
e 92 197
e 92 207
e 92 211
e 92 240
e 93 100
e 93 132
e 93 151
e 93 159
e 93 180
e 93 197
e 93 232
e 93 241
e 94 98
e 94 112
e 94 114
e 94 120
e 94 126
e 94 133
e 94 140
e 94 147
e 94 151
e 94 152
e 94 153
e 94 161
e 94 162
e 94 172
e 94 175
e 94 189
e 94 210
e 94 212
e 94 220
e 94 229
e 94 241
e 95 117
e 95 156
e 95 160
e 95 164
e 95 167
e 95 168
e 95 186
e 95 194
e 95 196
e 95 212
e 95 224
e 95 232
e 95 235
e 96 104
e 96 135
e 96 164
e 96 165
e 96 170
e 96 174
e 96 176
e 96 181
e 96 188
e 96 195
e 96 214
e 96 215
e 96 226
e 96 233
e 96 239
e 97 103
e 97 121
e 97 126
e 97 131
e 97 139
e 97 144
e 97 150
e 97 152
e 97 169
e 97 200
e 97 213
e 97 221
e 97 227
e 98 99
e 98 125
e 98 128
e 98 138
e 98 144
e 98 173
e 98 177
e 98 187
e 98 192
e 98 210
e 98 214
e 98 223
e 98 224
e 98 234
e 99 101
e 99 103
e 99 110
e 99 118
e 99 120
e 99 126
e 99 143
e 99 146
e 99 150
e 99 158
e 99 174
e 99 175
e 99 181
e 99 188
e 99 233
e 99 243
e 100 103
e 100 110
e 100 160
e 100 162
e 100 175
e 100 176
e 100 181
e 100 195
e 100 214
e 100 215
e 100 227
e 100 235
e 100 246
e 101 105
e 101 127
e 101 132
e 101 143
e 101 153
e 101 155
e 101 164
e 101 192
e 101 197
e 101 200
e 101 202
e 101 217
e 101 219
e 101 228
e 102 104
e 102 114
e 102 118
e 102 124
e 102 131
e 102 161
e 102 169
e 102 170
e 102 178
e 102 205
e 102 206
e 102 209
e 102 211
e 102 212
e 102 215
e 102 228
e 102 229
e 102 240
e 103 104
e 103 110
e 103 144
e 103 152
e 103 167
e 103 174
e 103 184
e 103 189
e 103 216
e 103 225
e 103 229
e 103 237
e 104 105
e 104 106
e 104 108
e 104 116
e 104 119
e 104 122
e 104 138
e 104 146
e 104 147
e 104 155
e 104 161
e 104 166
e 104 169
e 104 187
e 104 211
e 104 214
e 104 220
e 104 236
e 104 248
e 105 119
e 105 142
e 105 149
e 105 152
e 105 157
e 105 158
e 105 159
e 105 176
e 105 181
e 105 192
e 105 193
e 105 201
e 105 220
e 105 222
e 105 223
e 105 224
e 105 243
e 106 110
e 106 114
e 106 133
e 106 143
e 106 144
e 106 145
e 106 147
e 106 160
e 106 167
e 106 174
e 106 179
e 106 194
e 106 200
e 106 205
e 106 217
e 106 226
e 107 110
e 107 115
e 107 131
e 107 148
e 107 157
e 107 164
e 107 183
e 107 203
e 107 207
e 107 211
e 107 224
e 107 239
e 108 117
e 108 118
e 108 128
e 108 129
e 108 134
e 108 148
e 108 155
e 108 161
e 108 177
e 108 180
e 108 216
e 108 219
e 108 232
e 108 235
e 108 249
e 109 122
e 109 138
e 109 141
e 109 149
e 109 188
e 109 189
e 109 190
e 109 200
e 109 204
e 109 213
e 109 215
e 109 236
e 110 114
e 110 121
e 110 122
e 110 140
e 110 143
e 110 144
e 110 147
e 110 158
e 110 161
e 110 189
e 110 190
e 110 198
e 110 219
e 110 221
e 110 230
e 111 121
e 111 126
e 111 139
e 111 142
e 111 143
e 111 152
e 111 159
e 111 165
e 111 168
e 111 177
e 111 179
e 111 194
e 111 195
e 111 214
e 111 237
e 112 120
e 112 121
e 112 122
e 112 126
e 112 152
e 112 154
e 112 160
e 112 166
e 112 178
e 112 191
e 112 193
e 112 210
e 112 235
e 112 238
e 112 242
e 113 117
e 113 144
e 113 145
e 113 168
e 113 187
e 113 194
e 113 199
e 113 213
e 113 215
e 113 219
e 114 117
e 114 121
e 114 137
e 114 152
e 114 182
e 114 194
e 114 197
e 114 202
e 114 212
e 114 213
e 114 222
e 114 244
e 115 136
e 115 141
e 115 153
e 115 163
e 115 172
e 115 186
e 115 188
e 115 196
e 115 213
e 115 220
e 115 225
e 115 231
e 115 236
e 115 244
e 116 134
e 116 146
e 116 148
e 116 173
e 116 175
e 116 178
e 116 180
e 116 191
e 116 205
e 116 217
e 116 222
e 116 229
e 116 231
e 116 233
e 116 236
e 116 244
e 117 139
e 117 143
e 117 144
e 117 150
e 117 153
e 117 156
e 117 159
e 117 160
e 117 162
e 117 165
e 117 168
e 117 179
e 117 199
e 117 203
e 117 230
e 117 233
e 117 237
e 117 239
e 117 246
e 118 127
e 118 135
e 118 149
e 118 171
e 118 197
e 118 200
e 118 219
e 118 220
e 118 224
e 118 226
e 118 234
e 118 236
e 119 120
e 119 127
e 119 134
e 119 138
e 119 146
e 119 195
e 119 200
e 119 201
e 119 244
e 119 246
e 120 122
e 120 129
e 120 133
e 120 136
e 120 172
e 120 173
e 120 181
e 120 200
e 120 207
e 120 209
e 120 210
e 120 212
e 120 242
e 120 248
e 120 249
e 121 131
e 121 134
e 121 146
e 121 155
e 121 158
e 121 170
e 121 183
e 121 214
e 121 231
e 121 238
e 122 135
e 122 138
e 122 145
e 122 157
e 122 174
e 122 180
e 122 193
e 122 195
e 122 200
e 122 218
e 122 246
e 123 130
e 123 133
e 123 135
e 123 165
e 123 170
e 123 179
e 123 187
e 123 200
e 123 206
e 123 247
e 124 129
e 124 139
e 124 161
e 124 170
e 124 178
e 124 181
e 124 192
e 124 227
e 124 245
e 124 246
e 125 153
e 125 156
e 125 159
e 125 168
e 125 170
e 125 187
e 125 190
e 125 197
e 125 204
e 125 208
e 125 214
e 125 228
e 125 230
e 125 235
e 125 246
e 126 131
e 126 132
e 126 150
e 126 182
e 126 214
e 126 216
e 126 217
e 126 225
e 126 236
e 127 139
e 127 150
e 127 151
e 127 169
e 127 183
e 127 189
e 127 193
e 127 198
e 127 201
e 127 205
e 127 225
e 127 228
e 127 235
e 127 236
e 127 243
e 128 150
e 128 151
e 128 171
e 128 174
e 128 183
e 128 189
e 128 213
e 128 226
e 128 229
e 128 238
e 128 246
e 129 142
e 129 145
e 129 161
e 129 165
e 129 173
e 129 178
e 129 189
e 129 208
e 129 218
e 129 232
e 129 242
e 130 140
e 130 169
e 130 182
e 130 186
e 130 198
e 130 202
e 130 219
e 130 229
e 130 235
e 130 237
e 130 246
e 130 247
e 131 132
e 131 134
e 131 160
e 131 173
e 131 180
e 131 181
e 131 188
e 131 189
e 132 138
e 132 154
e 132 159
e 132 161
e 132 169
e 132 170
e 132 171
e 132 175
e 132 191
e 132 224
e 132 226
e 132 228
e 132 237
e 132 238
e 133 137
e 133 146
e 133 147
e 133 157
e 133 182
e 133 187
e 133 193
e 133 196
e 133 217
e 133 221
e 133 225
e 133 239
e 133 240
e 134 138
e 134 152
e 134 153
e 134 156
e 134 159
e 134 173
e 134 174
e 134 179
e 134 184
e 134 190
e 134 205
e 134 210
e 134 223
e 134 232
e 135 147
e 135 158
e 135 189
e 135 203
e 135 221
e 135 225
e 135 231
e 136 143
e 136 152
e 136 154
e 136 155
e 136 157
e 136 165
e 136 180
e 136 181
e 136 185
e 136 190
e 136 195
e 136 197
e 136 201
e 136 222
e 136 240
e 137 144
e 137 200
e 137 215
e 137 218
e 137 223
e 137 228
e 137 237
e 137 238
e 137 246
e 137 247
e 138 139
e 138 163
e 138 197
e 139 141
e 139 184
e 139 207
e 139 213
e 139 215
e 139 217
e 139 223
e 139 225
e 139 227
e 139 230
e 139 237
e 140 144
e 140 174
e 140 180
e 140 213
e 140 222
e 140 225
e 140 229
e 140 239
e 141 148
e 141 149
e 141 150
e 141 151
e 141 170
e 141 175
e 141 188
e 141 191
e 141 207
e 141 220
e 141 241
e 141 243
e 141 245
e 142 184
e 142 194
e 142 197
e 142 201
e 142 212
e 142 213
e 142 223
e 142 228
e 142 230
e 142 232
e 142 244
e 142 245
e 143 146
e 143 148
e 143 149
e 143 154
e 143 157
e 143 158
e 143 167
e 143 209
e 143 211
e 143 215
e 143 217
e 143 229
e 143 235
e 143 238
e 143 246
e 144 151
e 144 152
e 144 179
e 144 216
e 144 233
e 144 244
e 145 146
e 145 157
e 145 159
e 145 164
e 145 171
e 145 174
e 145 187
e 145 189
e 145 194
e 145 200
e 145 213
e 145 218
e 145 226
e 145 238
e 145 248
e 146 149
e 146 161
e 146 163
e 146 165
e 146 173
e 146 179
e 146 192
e 146 198
e 146 238
e 146 243
e 146 245
e 147 168
e 147 174
e 147 199
e 147 202
e 147 211
e 147 213
e 147 214
e 148 157
e 148 164
e 148 165
e 148 173
e 148 175
e 148 192
e 148 242
e 149 161
e 149 165
e 149 168
e 149 169
e 149 189
e 149 200
e 149 201
e 149 203
e 149 208
e 149 213
e 149 233
e 149 240
e 149 241
e 150 151
e 150 159
e 150 163
e 150 172
e 150 182
e 150 183
e 150 207
e 150 211
e 150 219
e 150 220
e 150 222
e 150 225
e 151 156
e 151 162
e 151 172
e 151 186
e 151 187
e 151 190
e 151 193
e 151 197
e 151 198
e 151 200
e 151 204
e 151 209
e 151 212
e 151 213
e 151 223
e 152 158
e 152 159
e 152 225
e 152 232
e 152 241
e 152 242
e 153 154
e 153 159
e 153 160
e 153 161
e 153 162
e 153 169
e 153 178
e 153 192
e 153 200
e 153 201
e 153 209
e 153 213
e 153 219
e 153 229
e 153 230
e 154 160
e 154 161
e 154 185
e 154 214
e 154 215
e 154 217
e 154 218
e 154 237
e 154 239
e 155 181
e 155 190
e 155 206
e 155 221
e 155 223
e 155 225
e 155 229
e 155 246
e 156 162
e 156 166
e 156 167
e 156 168
e 156 170
e 156 187
e 156 188
e 156 194
e 156 220
e 156 247
e 157 161
e 157 166
e 157 174
e 157 179
e 157 194
e 157 200
e 157 214
e 157 216
e 157 225
e 157 241
e 157 248
e 158 164
e 158 174
e 158 190
e 158 192
e 158 194
e 158 200
e 158 202
e 158 239
e 158 243
e 159 162
e 159 177
e 159 178
e 159 189
e 159 197
e 159 208
e 159 216
e 159 243
e 160 165
e 160 167
e 160 173
e 160 177
e 160 189
e 160 223
e 160 237
e 161 176
e 161 186
e 161 199
e 161 212
e 161 224
e 161 234
e 161 244
e 162 210
e 162 213
e 162 214
e 162 223
e 162 226
e 162 233
e 162 239
e 162 245
e 163 164
e 163 172
e 163 181
e 163 200
e 163 203
e 163 224
e 163 226
e 163 238
e 163 241
e 163 243
e 163 247
e 164 179
e 164 184
e 164 200
e 164 209
e 164 224
e 164 232
e 164 239
e 164 247
e 165 169
e 165 170
e 165 180
e 165 188
e 165 193
e 165 194
e 165 212
e 165 214
e 165 219
e 165 229
e 165 237
e 165 238
e 165 239
e 165 242
e 166 190
e 166 210
e 166 213
e 166 238
e 166 239
e 166 245
e 166 247
e 167 173
e 167 179
e 167 188
e 167 189
e 167 190
e 167 191
e 167 200
e 167 201
e 167 202
e 167 212
e 167 218
e 167 230
e 167 244
e 167 247
e 167 248
e 168 177
e 168 182
e 168 192
e 168 198
e 168 202
e 168 212
e 168 215
e 168 216
e 168 228
e 168 230
e 168 241
e 168 244
e 169 175
e 169 180
e 169 195
e 169 207
e 169 209
e 169 212
e 169 223
e 169 225
e 169 242
e 169 243
e 170 190
e 170 197
e 170 207
e 171 174
e 171 185
e 171 191
e 171 206
e 171 242
e 172 175
e 172 178
e 172 190
e 172 195
e 172 198
e 172 224
e 172 240
e 173 190
e 173 203
e 173 205
e 173 208
e 173 220
e 173 234
e 174 180
e 174 196
e 174 211
e 174 212
e 174 215
e 174 217
e 174 222
e 175 199
e 175 201
e 175 209
e 175 215
e 175 222
e 175 230
e 175 231
e 175 233
e 175 239
e 176 184
e 176 191
e 176 196
e 176 211
e 176 223
e 176 232
e 176 242
e 176 248
e 177 192
e 177 203
e 177 210
e 177 220
e 177 222
e 177 224
e 177 226
e 177 229
e 177 237
e 178 181
e 178 185
e 178 188
e 178 199
e 178 206
e 178 211
e 178 235
e 178 242
e 179 190
e 179 191
e 179 217
e 179 219
e 179 246
e 180 192
e 180 203
e 180 206
e 180 214
e 180 248
e 181 196
e 181 242
e 181 243
e 181 248
e 182 183
e 182 187
e 182 190
e 182 195
e 182 199
e 182 206
e 182 207
e 182 215
e 182 222
e 182 235
e 182 248
e 183 195
e 183 197
e 183 206
e 183 208
e 183 211
e 183 214
e 183 232
e 183 244
e 184 186
e 184 223
e 184 227
e 184 236
e 184 241
e 185 205
e 185 206
e 185 207
e 185 215
e 185 222
e 186 188
e 186 197
e 186 218
e 186 231
e 186 240
e 186 241
e 187 194
e 187 195
e 187 201
e 187 211
e 187 229
e 187 234
e 187 236
e 187 237
e 187 243
e 188 192
e 188 197
e 188 203
e 188 204
e 188 209
e 188 233
e 188 239
e 189 193
e 189 195
e 189 199
e 189 206
e 189 208
e 189 210
e 189 219
e 189 242
e 190 201
e 190 213
e 190 218
e 190 224
e 190 227
e 190 242
e 191 193
e 191 202
e 191 207
e 191 221
e 191 224
e 191 232
e 191 235
e 191 238
e 191 239
e 191 240
e 192 198
e 192 199
e 192 207
e 192 220
e 192 240
e 192 242
e 192 246
e 193 203
e 193 210
e 193 219
e 194 197
e 194 211
e 194 212
e 194 246
e 195 202
e 195 203
e 195 205
e 195 239
e 195 242
e 196 205
e 196 217
e 196 225
e 196 236
e 196 238
e 196 241
e 197 200
e 197 209
e 197 211
e 197 216
e 197 217
e 197 241
e 197 247
e 198 200
e 198 240
e 199 201
e 199 218
e 199 221
e 199 246
e 200 214
e 200 216
e 200 217
e 200 233
e 200 243
e 200 244
e 201 202
e 201 210
e 201 214
e 201 215
e 201 233
e 201 239
e 201 248
e 202 234
e 202 236
e 202 239
e 203 205
e 203 208
e 203 219
e 203 234
e 204 205
e 204 218
e 204 231
e 204 235
e 204 241
e 204 246
e 205 217
e 205 224
e 205 238
e 205 240
e 205 248
e 206 211
e 206 212
e 206 218
e 206 219
e 206 225
e 206 229
e 206 234
e 207 226
e 207 227
e 207 240
e 208 221
e 208 226
e 208 234
e 208 235
e 208 245
e 208 246
e 209 212
e 209 219
e 209 224
e 209 233
e 209 234
e 209 242
e 210 230
e 210 232
e 210 238
e 210 239
e 211 238
e 211 243
e 211 248
e 211 249
e 212 223
e 212 225
e 212 227
e 212 235
e 213 217
e 213 239
e 213 241
e 213 243
e 214 217
e 214 222
e 214 229
e 214 249
e 215 221
e 215 224
e 215 227
e 216 232
e 216 241
e 217 218
e 217 226
e 217 228
e 218 221
e 218 229
e 218 249
e 219 220
e 219 243
e 219 247
e 220 222
e 220 231
e 220 234
e 220 243
e 221 228
e 221 229
e 222 248
e 223 243
e 223 248
e 224 229
e 224 237
e 224 246
e 224 248
e 225 235
e 225 245
e 225 246
e 226 233
e 227 231
e 227 240
e 227 242
e 227 248
e 228 229
e 228 232
e 228 245
e 228 247
e 229 230
e 229 233
e 230 241
e 230 246
e 231 239
e 232 234
e 235 239
e 236 245
e 236 249
e 237 242
e 240 242
e 240 247
e 242 249
e 244 245
e 244 246
e 244 249
e 245 247
e 247 248
